146 93 91 18 23 16 57 74 41 106 142 144 141 34 54 132 112 190 108 3 118 86 43 81 32 150 11 114 111 113 160 6 161 97 30 135 26 94 140 193 178 170 2 147 120 0 196 45 119 167 179 171 175 22 21 131 28 65 51 78 56 98 60 137 125 145 37 148 180 29 158 92 122 123 95 64 198 67 12 100 188 89 192 128 149 4 46 7 102 110 174 87 157 39 104 42 84 20 27 9 181 19 176 143 36 82 52 76 8 14 185 152 168 35 33 69 151 49 154 38 72 124 66 73 184 88 182 187 63 191 44 133 183 105 40 31 10 173 96 61 101 162 117 177 99 164 109 165 5 115 25 159 71 155 169 1 134 127 166 85 68 130 163 17 59 195 47 48 139 153 156 55 70 121 138 83 136 172 13 77 79 103 116 199 194 75 189 197 126 107 50 90 53 24 58 80 15 129 62 186